Minimize
-2 err0 + -2 err1 + [ err0 ^ 2 + err1 ^ 2 ]

Subject To
1000000 num_0_V + num_0_C + err1 = 2316.2
100000 num_0_V + num_0_C + err0 = 237.4
Bounds
num_0 <= 1
-99999 <= err1 <= 99999
-99999 <= num_0_C <= 99999
-99999 <= num_0_V <= 99999
-99999 <= err0 <= 99999
-99999 <= num <= 99999
Integers
num_0
